SPARKNaCl/why3-cvc5/sparknacl-sign.adb_719_7_precondition3_1.smt2
;; produced by cvc5.drv ;;
(set-logic ALL)
(set-info :smt-lib-version 2.6)
;;; generated by SMT-LIB2 driver
;;; SMT-LIB2 driver: bit-vectors, common part
;;; SMT-LIB2: integer arithmetic
(declare-sort i64 0)

;; "i64'int"
(declare-fun i64qtint (i64) Int)

;; "i64'axiom"
(assert
  (forall ((i i64))
    (and
      (<= (- 9223372036854775808) (i64qtint i))
      (<= (i64qtint i) 9223372036854775807))))

;; "in_range"
(define-fun in_range ((x Int)) Bool
  (and (<= (- 9223372036854775808) x) (<= x 9223372036854775807)))

;; "to_rep"
(define-fun to_rep ((x i64)) Int
  (i64qtint x))

;; "of_rep"
(declare-fun of_rep (Int) i64)

;; "inversion_axiom"
(assert
  (forall ((x i64)) (! (= (of_rep (to_rep x)) x) :pattern ((to_rep x)) )))

;; "range_axiom"
(assert (forall ((x i64)) (! (in_range (to_rep x)) :pattern ((to_rep x)) )))

;; "coerce_axiom"
(assert
  (forall ((x Int))
    (! (=> (in_range x) (= (to_rep (of_rep x)) x)) :pattern ((to_rep
                                                               (of_rep x))) )))

(declare-sort map1 0)

;; "has_bounds"
(declare-fun has_bounds (map1
  Int
  Int) Bool)

;; "get"
(declare-fun get (map1
  Int) i64)

(declare-const x map1)

(declare-sort xl_limb 0)

;; "xl_limb'int"
(declare-fun xl_limbqtint (xl_limb) Int)

;; "xl_limb'axiom"
(assert
  (forall ((i xl_limb))
    (and
      (<= (- 33299444949360) (xl_limbqtint i))
      (<= (xl_limbqtint i) 33299444949360))))

;; "in_range"
(define-fun in_range1 ((x1 Int)) Bool
  (and (<= (- 33299444949360) x1) (<= x1 33299444949360)))

;; "to_rep"
(define-fun to_rep1 ((x1 xl_limb)) Int
  (xl_limbqtint x1))

;; "of_rep"
(declare-fun of_rep1 (Int) xl_limb)

;; "inversion_axiom"
(assert
  (forall ((x1 xl_limb))
    (! (= (of_rep1 (to_rep1 x1)) x1) :pattern ((to_rep1 x1)) )))

;; "range_axiom"
(assert
  (forall ((x1 xl_limb))
    (! (in_range1 (to_rep1 x1)) :pattern ((to_rep1 x1)) )))

;; "coerce_axiom"
(assert
  (forall ((x1 Int))
    (! (=> (in_range1 x1) (= (to_rep1 (of_rep1 x1)) x1)) :pattern ((to_rep1
                                                                    (of_rep1
                                                                    x1))) )))

(declare-sort map2 0)

;; "has_bounds"
(declare-fun has_bounds1 (map2
  Int
  Int) Bool)

;; "get"
(declare-fun get1 (map2
  Int) xl_limb)

;; "pow2"
(declare-fun pow2 (Int) Int)

(declare-const two_power_size_minus_one Int)

;; "two_power_size_minus_one_val"
(assert (= two_power_size_minus_one (pow2 (- 8 1))))

;; "min"
(define-fun min ((x1 Int) (y Int)) Int
  (ite (<= x1 y) x1 y))

;; "max"
(define-fun max ((x1 Int) (y Int)) Int
  (ite (<= x1 y) y x1))

;; "Min_r"
(assert (forall ((x1 Int) (y Int)) (=> (<= y x1) (= (min x1 y) y))))

;; "Max_l"
(assert (forall ((x1 Int) (y Int)) (=> (<= y x1) (= (max x1 y) x1))))

;; "Min_comm"
(assert (forall ((x1 Int) (y Int)) (= (min x1 y) (min y x1))))

;; "Max_comm"
(assert (forall ((x1 Int) (y Int)) (= (max x1 y) (max y x1))))

;; "Min_assoc"
(assert
  (forall ((x1 Int) (y Int) (z Int))
    (= (min (min x1 y) z) (min x1 (min y z)))))

;; "Max_assoc"
(assert
  (forall ((x1 Int) (y Int) (z Int))
    (= (max (max x1 y) z) (max x1 (max y z)))))

(declare-sort byte 0)

;; "to_rep"
(declare-fun to_rep2 (byte) (_ BitVec 8))

;; "of_rep"
(declare-fun of_rep2 ((_ BitVec 8)) byte)

;; "inversion_axiom"
(assert
  (forall ((x1 byte))
    (! (= (of_rep2 (to_rep2 x1)) x1) :pattern ((to_rep2 x1)) )))

;; "range_axiom"
(assert true)

;; "coerce_axiom"
(assert
  (forall ((x1 (_ BitVec 8)))
    (! (= (to_rep2 (of_rep2 x1)) x1) :pattern ((to_rep2 (of_rep2 x1))) )))

(declare-sort map3 0)

;; "has_bounds"
(declare-fun has_bounds2 (map3
  Int
  Int) Bool)

;; "in_range"
(define-fun in_range2 ((x1 Int)) Bool
  (and (<= (- 128) x1) (<= x1 127)))

;; "in_range"
(define-fun in_range3 ((x1 Int)) Bool
  (and (<= 0 x1) (<= x1 2089216)))

;; Goal "def'vc"
;; File "sparknacl-sign.adb", line 54, characters 0-0
(assert
  (not
  (forall ((xl map2) (r map3))
    (=>
      (has_bounds x 0 63)
      (=>
        (forall ((k Int))
          (=>
            (and (<= 0 k) (<= k 63))
            (let ((temp___1892 (to_rep (get x k))))
              (and (<= 0 temp___1892) (<= temp___1892 2081055)))))
        (=>
          (has_bounds1 xl 0 63)
          (=>
            (has_bounds2 r 0 31)
            (forall ((xl1 map2))
              (=>
                (and
                  (and
                    (and
                      (forall ((k Int))
                        (=>
                          (and (<= 0 k) (<= k 63))
                          (<= 0 (to_rep1 (get1 xl1 k)))))
                      (forall ((k Int))
                        (=>
                          (and (<= 0 k) (<= k 63))
                          (<= (to_rep1 (get1 xl1 k)) 2081055))))
                    (forall ((k Int))
                      (=>
                        (and (<= 0 k) (<= k 63))
                        (= (to_rep1 (get1 xl1 k)) (to_rep (get x k))))))
                  (has_bounds1 xl1 0 63))
                (forall ((xl2 map2))
                  (=>
                    (and
                      (and
                        (and
                          (and
                            (and
                              (forall ((k Int))
                                (=>
                                  (and (<= 0 k) (<= k 30))
                                  (= (to_rep1 (get1 xl2 k)) (to_rep
                                                              (get x k)))))
                              (forall ((k Int))
                                (=>
                                  (and (<= 31 k) (<= k 50))
                                  (in_range2 (to_rep1 (get1 xl2 k))))))
                            (in_range3 (to_rep1 (get1 xl2 51))))
                          (forall ((k Int))
                            (=>
                              (and (<= 52 k) (<= k 62))
                              (= (to_rep1 (get1 xl2 k)) (to_rep (get x k))))))
                        (= (to_rep1 (get1 xl2 63)) 0))
                      (has_bounds1 xl2 0 63))
                    (forall ((k Int))
                      (=>
                        (and (<= 0 k) (<= k 30))
                        (<= (to_rep1 (get1 xl2 k)) 2081055))))))))))))))

(check-sat)
